(declare-fun var0 () String)
(declare-fun var1 () String)
(declare-fun var2 () String)
(declare-fun var3 () String)
(declare-fun var4 () String)
(declare-fun var5 () String)
(declare-fun var6 () String)
(declare-fun var7 () String)
(declare-fun var8 () String)
(declare-fun var9 () String)
(declare-fun var10 () String)
(declare-fun var11 () String)
(declare-fun var12 () String)
(declare-fun var13 () String)
(declare-fun var14 () String)
(declare-fun var15 () String)
(declare-fun var16 () String)
(declare-fun var17 () String)
(declare-fun var18 () String)
(declare-fun var19 () String)
(declare-fun var20 () String)
(declare-fun var21 () String)
(declare-fun var22 () String)
(declare-fun var23 () String)
(declare-fun var24 () String)
(declare-fun var25 () String)
(declare-fun var26 () String)
(declare-fun var27 () String)
(declare-fun var28 () String)
(declare-fun var29 () String)
(declare-fun var30 () String)
(declare-fun var31 () String)
(declare-fun var32 () String)
(declare-fun var33 () String)
(declare-fun var34 () String)
(declare-fun var35 () String)
(declare-fun var36 () String)
(declare-fun var37 () String)
(declare-fun var38 () String)
(declare-fun var39 () String)
(declare-fun var40 () String)
(declare-fun var41 () String)
(declare-fun var42 () String)
(declare-fun var43 () String)
(declare-fun var44 () String)
(declare-fun var45 () String)
(declare-fun var46 () String)
(declare-fun var47 () String)
(declare-fun var48 () String)
(declare-fun var49 () String)
(declare-fun var50 () String)
(declare-fun var51 () String)
(declare-fun var52 () String)
(declare-fun var53 () String)
(declare-fun var54 () String)
(declare-fun var55 () String)
(declare-fun var56 () String)
(declare-fun var57 () String)
(declare-fun var58 () String)
(declare-fun var59 () String)
(assert (= 81 (Length var0)))
(assert (= 38 (Length var1)))
(assert (= 80 (Length var2)))
(assert (= 74 (Length var3)))
(assert (= 8 (Length var4)))
(assert (= 2 (Length var5)))
(assert (= 39 (Length var6)))
(assert (= 56 (Length var7)))
(assert (= 50 (Length var8)))
(assert (= 84 (Length var9)))
(assert (= 88 (Length var10)))
(assert (= 20 (Length var11)))
(assert (= 80 (Length var12)))
(assert (= 95 (Length var13)))
(assert (= 26 (Length var14)))
(assert (= 67 (Length var15)))
(assert (= 14 (Length var16)))
(assert (= 31 (Length var17)))
(assert (= 84 (Length var18)))
(assert (= 18 (Length var19)))
(assert (= 5 (Length var20)))
(assert (= 46 (Length var21)))
(assert (= 10 (Length var22)))
(assert (= 63 (Length var23)))
(assert (= 49 (Length var24)))
(assert (= 59 (Length var25)))
(assert (= 56 (Length var26)))
(assert (= 7 (Length var27)))
(assert (= 20 (Length var28)))
(assert (= 48 (Length var29)))
(assert (= 97 (Length var30)))
(assert (= 44 (Length var31)))
(assert (= 81 (Length var32)))
(assert (= 82 (Length var33)))
(assert (= 92 (Length var34)))
(assert (= 21 (Length var35)))
(assert (= 84 (Length var36)))
(assert (= 3 (Length var37)))
(assert (= 57 (Length var38)))
(assert (= 16 (Length var39)))
(assert (= 93 (Length var40)))
(assert (= 44 (Length var41)))
(assert (= 55 (Length var42)))
(assert (= 98 (Length var43)))
(assert (= 4 (Length var44)))
(assert (= 77 (Length var45)))
(assert (= 78 (Length var46)))
(assert (= 27 (Length var47)))
(assert (= 84 (Length var48)))
(assert (= 78 (Length var49)))
(assert (= 33 (Length var50)))
(assert (= 64 (Length var51)))
(assert (= 42 (Length var52)))
(assert (= 70 (Length var53)))
(assert (= 71 (Length var54)))
(assert (= 1 (Length var55)))
(assert (= 6 (Length var56)))
(assert (= 20 (Length var57)))
(assert (= 47 (Length var58)))
(assert (= 98 (Length var59)))
(assert (= 81 (Length (Concat var46 var37))))
(assert (= 128 (Length (Concat var29 var12))))
(assert (= 114 (Length (Concat var0 var50))))
(assert (= 44 (Length (Concat var1 var56))))
(assert (= 189 (Length (Concat var34 var30))))
(assert (= 66 (Length (Concat var51 var5))))
(check-sat)